p cnf 2623
-15 -225
-16 -80
-17 -83
-18 -86
-19 -89
-20 -92
-21 -95
-22 -98
-23 -262
-24 -268
-25 -274
-26 -280
-27 -286
-28 -292
-29 -298
-30 -324
-31 -343
-32 -361
-33 -371
-34 -390
-35 -409
-36 -427
-37 -437
-38 -456
-39 -475
-40 -493
-41 -503
-42 -522
-43 -541
-44 -559
-45 -569
-46 -588
-47 -607
-48 -625
-49 -635
-50 -654
-51 -673
-52 -691
-53 -701
-54 -720
-55 -739
-56 -757
-57 -767
-58 -818
-59 -824
-60 1
-60 -23
-1 23 60
-61 2
-61 -24
-2 24 61
-62 3
-62 -25
-3 25 62
-63 4
-63 -26
-4 26 63
-64 5
-64 -27
-5 27 64
-65 6
-65 -28
-6 28 65
-66 7
-66 -29
-7 29 66
-67 -60
-67 61
60 -61 67
-68 -60
-68 -67
60 67 68
-69 62
-69 68
-62 -68 69
-70 68
-70 -69
-68 69 70
-71 63
-71 70
-63 -70 71
-72 70
-72 -71
-70 71 72
-73 64
-73 72
-64 -72 73
-74 72
-74 -73
-72 73 74
-75 65
-75 74
-65 -74 75
-76 74
-76 -75
-74 75 76
-77 66
-77 76
-66 -76 77
-78 -15
-78 60
15 -60 78
-79 15
-79 16
-15 -16 79
-80 -78
-80 -79
78 79 80
-81 -15
-81 67
15 -67 81
-82 15
-82 17
-15 -17 82
-83 -81
-83 -82
81 82 83
-84 -15
-84 69
15 -69 84
-85 15
-85 18
-15 -18 85
-86 -84
-86 -85
84 85 86
-87 -15
-87 71
15 -71 87
-88 15
-88 19
-15 -19 88
-89 -87
-89 -88
87 88 89
-90 -15
-90 73
15 -73 90
-91 15
-91 20
-15 -20 91
-92 -90
-92 -91
90 91 92
-93 -15
-93 75
15 -75 93
-94 15
-94 21
-15 -21 94
-95 -93
-95 -94
93 94 95
-96 -15
-96 77
15 -77 96
-97 15
-97 22
-15 -22 97
-98 -96
-98 -97
96 97 98
-99 1
-99 -80
-1 80 99
-100 2
-100 -83
-2 83 100
-101 3
-101 -86
-3 86 101
-102 4
-102 -89
-4 89 102
-103 5
-103 -92
-5 92 103
-104 6
-104 -95
-6 95 104
-105 7
-105 -98
-7 98 105
-106 30
-106 -31
-30 31 106
-107 -32
-107 -33
32 33 107
-108 106
-108 107
-106 -107 108
-109 -30
-109 -31
30 31 109
-110 -32
-110 33
32 -33 110
-111 109
-111 110
-109 -110 111
-112 -108
-112 -111
108 111 112
-113 99
-113 -112
-99 112 113
-114 34
-114 -35
-34 35 114
-115 -36
-115 -37
36 37 115
-116 114
-116 115
-114 -115 116
-117 -34
-117 -35
34 35 117
-118 -36
-118 37
36 -37 118
-119 117
-119 118
-117 -118 119
-120 -116
-120 -119
116 119 120
-121 100
-121 -120
-100 120 121
-122 38
-122 -39
-38 39 122
-123 -40
-123 -41
40 41 123
-124 122
-124 123
-122 -123 124
-125 -38
-125 -39
38 39 125
-126 -40
-126 41
40 -41 126
-127 125
-127 126
-125 -126 127
-128 -124
-128 -127
124 127 128
-129 101
-129 -128
-101 128 129
-130 42
-130 -43
-42 43 130
-131 -44
-131 -45
44 45 131
-132 130
-132 131
-130 -131 132
-133 -42
-133 -43
42 43 133
-134 -44
-134 45
44 -45 134
-135 133
-135 134
-133 -134 135
-136 -132
-136 -135
132 135 136
-137 102
-137 -136
-102 136 137
-138 46
-138 -47
-46 47 138
-139 -48
-139 -49
48 49 139
-140 138
-140 139
-138 -139 140
-141 -46
-141 -47
46 47 141
-142 -48
-142 49
48 -49 142
-143 141
-143 142
-141 -142 143
-144 -140
-144 -143
140 143 144
-145 103
-145 -144
-103 144 145
-146 50
-146 -51
-50 51 146
-147 -52
-147 -53
52 53 147
-148 146
-148 147
-146 -147 148
-149 -50
-149 -51
50 51 149
-150 -52
-150 53
52 -53 150
-151 149
-151 150
-149 -150 151
-152 -148
-152 -151
148 151 152
-153 104
-153 -152
-104 152 153
-154 54
-154 -55
-54 55 154
-155 -56
-155 -57
56 57 155
-156 154
-156 155
-154 -155 156
-157 -54
-157 -55
54 55 157
-158 -56
-158 57
56 -57 158
-159 157
-159 158
-157 -158 159
-160 -156
-160 -159
156 159 160
-161 105
-161 -160
-105 160 161
-162 -113
-162 -121
113 121 162
-163 -129
-163 -137
129 137 163
-164 -145
-164 -153
145 153 164
-165 162
-165 163
-162 -163 165
-166 -161
-166 164
161 -164 166
-167 165
-167 166
-165 -166 167
-168 -30
-168 31
30 -31 168
-169 32
-169 -33
-32 33 169
-170 168
-170 169
-168 -169 170
-171 32
-171 33
-32 -33 171
-172 106
-172 171
-106 -171 172
-173 -170
-173 -172
170 172 173
-174 99
-174 -173
-99 173 174
-175 -34
-175 35
34 -35 175
-176 36
-176 -37
-36 37 176
-177 175
-177 176
-175 -176 177
-178 36
-178 37
-36 -37 178
-179 114
-179 178
-114 -178 179
-180 -177
-180 -179
177 179 180
-181 100
-181 -180
-100 180 181
-182 -38
-182 39
38 -39 182
-183 40
-183 -41
-40 41 183
-184 182
-184 183
-182 -183 184
-185 40
-185 41
-40 -41 185
-186 122
-186 185
-122 -185 186
-187 -184
-187 -186
184 186 187
-188 101
-188 -187
-101 187 188
-189 -42
-189 43
42 -43 189
-190 44
-190 -45
-44 45 190
-191 189
-191 190
-189 -190 191
-192 44
-192 45
-44 -45 192
-193 130
-193 192
-130 -192 193
-194 -191
-194 -193
191 193 194
-195 102
-195 -194
-102 194 195
-196 -46
-196 47
46 -47 196
-197 48
-197 -49
-48 49 197
-198 196
-198 197
-196 -197 198
-199 48
-199 49
-48 -49 199
-200 138
-200 199
-138 -199 200
-201 -198
-201 -200
198 200 201
-202 103
-202 -201
-103 201 202
-203 -50
-203 51
50 -51 203
-204 52
-204 -53
-52 53 204
-205 203
-205 204
-203 -204 205
-206 52
-206 53
-52 -53 206
-207 146
-207 206
-146 -206 207
-208 -205
-208 -207
205 207 208
-209 104
-209 -208
-104 208 209
-210 -54
-210 55
54 -55 210
-211 56
-211 -57
-56 57 211
-212 210
-212 211
-210 -211 212
-213 56
-213 57
-56 -57 213
-214 154
-214 213
-154 -213 214
-215 -212
-215 -214
212 214 215
-216 105
-216 -215
-105 215 216
-217 -174
-217 -181
174 181 217
-218 -188
-218 -195
188 195 218
-219 -202
-219 -209
202 209 219
-220 217
-220 218
-217 -218 220
-221 -216
-221 219
216 -219 221
-222 220
-222 221
-220 -221 222
-223 15
-223 222
-15 -222 223
-224 167
-224 223
-167 -223 224
-225 167
-225 -224
-167 224 225
-226 -23
-226 24
23 -24 226
-227 -23
-227 -226
23 226 227
-228 25
-228 227
-25 -227 228
-229 227
-229 -228
-227 228 229
-230 26
-230 229
-26 -229 230
-231 229
-231 -230
-229 230 231
-232 27
-232 231
-27 -231 232
-233 231
-233 -232
-231 232 233
-234 28
-234 233
-28 -233 234
-235 233
-235 -234
-233 234 235
-236 29
-236 235
-29 -235 236
-237 109
-237 171
-109 -171 237
-238 99
-238 237
-99 -237 238
-239 117
-239 178
-117 -178 239
-240 100
-240 239
-100 -239 240
-241 125
-241 185
-125 -185 241
-242 101
-242 241
-101 -241 242
-243 133
-243 192
-133 -192 243
-244 102
-244 243
-102 -243 244
-245 141
-245 199
-141 -199 245
-246 103
-246 245
-103 -245 246
-247 149
-247 206
-149 -206 247
-248 104
-248 247
-104 -247 248
-249 157
-249 213
-157 -213 249
-250 105
-250 249
-105 -249 250
-251 -238
-251 -240
238 240 251
-252 -242
-252 -244
242 244 252
-253 -246
-253 -248
246 248 253
-254 251
-254 252
-251 -252 254
-255 -250
-255 253
250 -253 255
-256 254
-256 255
-254 -255 256
-257 106
-257 169
-106 -169 257
-258 99
-258 257
-99 -257 258
-259 23
-259 -256
-23 256 259
-260 23
-260 -259
-23 259 260
-261 -258
-261 260
258 -260 261
-262 -258
-262 -261
258 261 262
-263 114
-263 176
-114 -176 263
-264 100
-264 263
-100 -263 264
-265 226
-265 -256
-226 256 265
-266 24
-266 -265
-24 265 266
-267 -264
-267 266
264 -266 267
-268 -264
-268 -267
264 267 268
-269 122
-269 183
-122 -183 269
-270 101
-270 269
-101 -269 270
-271 228
-271 -256
-228 256 271
-272 25
-272 -271
-25 271 272
-273 -270
-273 272
270 -272 273
-274 -270
-274 -273
270 273 274
-275 130
-275 190
-130 -190 275
-276 102
-276 275
-102 -275 276
-277 230
-277 -256
-230 256 277
-278 26
-278 -277
-26 277 278
-279 -276
-279 278
276 -278 279
-280 -276
-280 -279
276 279 280
-281 138
-281 197
-138 -197 281
-282 103
-282 281
-103 -281 282
-283 232
-283 -256
-232 256 283
-284 27
-284 -283
-27 283 284
-285 -282
-285 284
282 -284 285
-286 -282
-286 -285
282 285 286
-287 146
-287 204
-146 -204 287
-288 104
-288 287
-104 -287 288
-289 234
-289 -256
-234 256 289
-290 28
-290 -289
-28 289 290
-291 -288
-291 290
288 -290 291
-292 -288
-292 -291
288 291 292
-293 154
-293 211
-154 -211 293
-294 105
-294 293
-105 -293 294
-295 236
-295 -256
-236 256 295
-296 29
-296 -295
-29 295 296
-297 -294
-297 296
294 -296 297
-298 -294
-298 -297
294 297 298
-299 -23
-299 -24
23 24 299
-300 -25
-300 -26
25 26 300
-301 -27
-301 -28
27 28 301
-302 299
-302 300
-299 -300 302
-303 -29
-303 301
29 -301 303
-304 302
-304 303
-302 -303 304
-305 -58
-305 59
58 -59 305
-306 -31
-306 -109
31 109 306
-307 32
-307 109
-32 -109 307
-308 -32
-308 -306
32 306 308
-309 -307
-309 -308
307 308 309
-310 -8
-310 30
8 -30 310
-311 30
-311 -310
-30 310 311
-312 31
-312 -311
-31 311 312
-313 8
-313 -30
-8 30 313
-314 -31
-314 313
31 -313 314
-315 -168
-315 -314
168 314 315
-316 32
-316 312
-32 -312 316
-317 -32
-317 -315
32 315 317
-318 -316
-318 -317
316 317 318
-319 33
-319 -309
-33 309 319
-320 -33
-320 -318
33 318 320
-321 -319
-321 -320
319 320 321
-322 99
-322 -321
-99 321 322
-323 30
-323 -99
-30 99 323
-324 -322
-324 -323
322 323 324
-325 30
-325 304
-30 -304 325
-326 -31
-326 325
31 -325 326
-327 -168
-327 -326
168 326 327
-328 32
-328 106
-32 -106 328
-329 -32
-329 -327
32 327 329
-330 -328
-330 -329
328 329 330
-331 31
-331 -312
-31 312 331
-332 -30
-332 -305
30 305 332
-333 31
-333 332
-31 -332 333
-334 -106
-334 -333
106 333 334
-335 32
-335 -331
-32 331 335
-336 -32
-336 -334
32 334 336
-337 -335
-337 -336
335 336 337
-338 33
-338 -330
-33 330 338
-339 -33
-339 -337
33 337 339
-340 -338
-340 -339
338 339 340
-341 99
-341 -340
-99 340 341
-342 31
-342 -99
-31 99 342
-343 -341
-343 -342
341 342 343
-344 30
-344 -304
-30 304 344
-345 30
-345 31
-30 -31 345
-346 -31
-346 344
31 -344 346
-347 -345
-347 -346
345 346 347
-348 -31
-348 32
31 -32 348
-349 -32
-349 -347
32 347 349
-350 -348
-350 -349
348 349 350
-351 -30
-351 305
30 -305 351
-352 -30
-352 -351
30 351 352
-353 31
-353 -352
-31 352 353
-354 -32
-354 353
32 -353 354
-355 -335
-355 -354
335 354 355
-356 33
-356 -350
-33 350 356
-357 -33
-357 -355
33 355 357
-358 -356
-358 -357
356 357 358
-359 99
-359 -358
-99 358 359
-360 32
-360 -99
-32 99 360
-361 -359
-361 -360
359 360 361
-362 32
-362 -348
-32 348 362
-363 8
-363 30
-8 -30 363
-364 31
-364 363
-31 -363 364
-365 32
-365 364
-32 -364 365
-366 33
-366 -362
-33 362 366
-367 -33
-367 365
33 -365 367
-368 -366
-368 -367
366 367 368
-369 99
-369 -368
-99 368 369
-370 33
-370 -99
-33 99 370
-371 -369
-371 -370
369 370 371
-372 -35
-372 -117
35 117 372
-373 36
-373 117
-36 -117 373
-374 -36
-374 -372
36 372 374
-375 -373
-375 -374
373 374 375
-376 -9
-376 34
9 -34 376
-377 34
-377 -376
-34 376 377
-378 35
-378 -377
-35 377 378
-379 9
-379 -34
-9 34 379
-380 -35
-380 379
35 -379 380
-381 -175
-381 -380
175 380 381
-382 36
-382 378
-36 -378 382
-383 -36
-383 -381
36 381 383
-384 -382
-384 -383
382 383 384
-385 37
-385 -375
-37 375 385
-386 -37
-386 -384
37 384 386
-387 -385
-387 -386
385 386 387
-388 100
-388 -387
-100 387 388
-389 34
-389 -100
-34 100 389
-390 -388
-390 -389
388 389 390
-391 34
-391 304
-34 -304 391
-392 -35
-392 391
35 -391 392
-393 -175
-393 -392
175 392 393
-394 36
-394 114
-36 -114 394
-395 -36
-395 -393
36 393 395
-396 -394
-396 -395
394 395 396
-397 35
-397 -378
-35 378 397
-398 -34
-398 -305
34 305 398
-399 35
-399 398
-35 -398 399
-400 -114
-400 -399
114 399 400
-401 36
-401 -397
-36 397 401
-402 -36
-402 -400
36 400 402
-403 -401
-403 -402
401 402 403
-404 37
-404 -396
-37 396 404
-405 -37
-405 -403
37 403 405
-406 -404
-406 -405
404 405 406
-407 100
-407 -406
-100 406 407
-408 35
-408 -100
-35 100 408
-409 -407
-409 -408
407 408 409
-410 34
-410 -304
-34 304 410
-411 34
-411 35
-34 -35 411
-412 -35
-412 410
35 -410 412
-413 -411
-413 -412
411 412 413
-414 -35
-414 36
35 -36 414
-415 -36
-415 -413
36 413 415
-416 -414
-416 -415
414 415 416
-417 -34
-417 305
34 -305 417
-418 -34
-418 -417
34 417 418
-419 35
-419 -418
-35 418 419
-420 -36
-420 419
36 -419 420
-421 -401
-421 -420
401 420 421
-422 37
-422 -416
-37 416 422
-423 -37
-423 -421
37 421 423
-424 -422
-424 -423
422 423 424
-425 100
-425 -424
-100 424 425
-426 36
-426 -100
-36 100 426
-427 -425
-427 -426
425 426 427
-428 36
-428 -414
-36 414 428
-429 9
-429 34
-9 -34 429
-430 35
-430 429
-35 -429 430
-431 36
-431 430
-36 -430 431
-432 37
-432 -428
-37 428 432
-433 -37
-433 431
37 -431 433
-434 -432
-434 -433
432 433 434
-435 100
-435 -434
-100 434 435
-436 37
-436 -100
-37 100 436
-437 -435
-437 -436
435 436 437
-438 -39
-438 -125
39 125 438
-439 40
-439 125
-40 -125 439
-440 -40
-440 -438
40 438 440
-441 -439
-441 -440
439 440 441
-442 -10
-442 38
10 -38 442
-443 38
-443 -442
-38 442 443
-444 39
-444 -443
-39 443 444
-445 10
-445 -38
-10 38 445
-446 -39
-446 445
39 -445 446
-447 -182
-447 -446
182 446 447
-448 40
-448 444
-40 -444 448
-449 -40
-449 -447
40 447 449
-450 -448
-450 -449
448 449 450
-451 41
-451 -441
-41 441 451
-452 -41
-452 -450
41 450 452
-453 -451
-453 -452
451 452 453
-454 101
-454 -453
-101 453 454
-455 38
-455 -101
-38 101 455
-456 -454
-456 -455
454 455 456
-457 38
-457 304
-38 -304 457
-458 -39
-458 457
39 -457 458
-459 -182
-459 -458
182 458 459
-460 40
-460 122
-40 -122 460
-461 -40
-461 -459
40 459 461
-462 -460
-462 -461
460 461 462
-463 39
-463 -444
-39 444 463
-464 -38
-464 -305
38 305 464
-465 39
-465 464
-39 -464 465
-466 -122
-466 -465
122 465 466
-467 40
-467 -463
-40 463 467
-468 -40
-468 -466
40 466 468
-469 -467
-469 -468
467 468 469
-470 41
-470 -462
-41 462 470
-471 -41
-471 -469
41 469 471
-472 -470
-472 -471
470 471 472
-473 101
-473 -472
-101 472 473
-474 39
-474 -101
-39 101 474
-475 -473
-475 -474
473 474 475
-476 38
-476 -304
-38 304 476
-477 38
-477 39
-38 -39 477
-478 -39
-478 476
39 -476 478
-479 -477
-479 -478
477 478 479
-480 -39
-480 40
39 -40 480
-481 -40
-481 -479
40 479 481
-482 -480
-482 -481
480 481 482
-483 -38
-483 305
38 -305 483
-484 -38
-484 -483
38 483 484
-485 39
-485 -484
-39 484 485
-486 -40
-486 485
40 -485 486
-487 -467
-487 -486
467 486 487
-488 41
-488 -482
-41 482 488
-489 -41
-489 -487
41 487 489
-490 -488
-490 -489
488 489 490
-491 101
-491 -490
-101 490 491
-492 40
-492 -101
-40 101 492
-493 -491
-493 -492
491 492 493
-494 40
-494 -480
-40 480 494
-495 10
-495 38
-10 -38 495
-496 39
-496 495
-39 -495 496
-497 40
-497 496
-40 -496 497
-498 41
-498 -494
-41 494 498
-499 -41
-499 497
41 -497 499
-500 -498
-500 -499
498 499 500
-501 101
-501 -500
-101 500 501
-502 41
-502 -101
-41 101 502
-503 -501
-503 -502
501 502 503
-504 -43
-504 -133
43 133 504
-505 44
-505 133
-44 -133 505
-506 -44
-506 -504
44 504 506
-507 -505
-507 -506
505 506 507
-508 -11
-508 42
11 -42 508
-509 42
-509 -508
-42 508 509
-510 43
-510 -509
-43 509 510
-511 11
-511 -42
-11 42 511
-512 -43
-512 511
43 -511 512
-513 -189
-513 -512
189 512 513
-514 44
-514 510
-44 -510 514
-515 -44
-515 -513
44 513 515
-516 -514
-516 -515
514 515 516
-517 45
-517 -507
-45 507 517
-518 -45
-518 -516
45 516 518
-519 -517
-519 -518
517 518 519
-520 102
-520 -519
-102 519 520
-521 42
-521 -102
-42 102 521
-522 -520
-522 -521
520 521 522
-523 42
-523 304
-42 -304 523
-524 -43
-524 523
43 -523 524
-525 -189
-525 -524
189 524 525
-526 44
-526 130
-44 -130 526
-527 -44
-527 -525
44 525 527
-528 -526
-528 -527
526 527 528
-529 43
-529 -510
-43 510 529
-530 -42
-530 -305
42 305 530
-531 43
-531 530
-43 -530 531
-532 -130
-532 -531
130 531 532
-533 44
-533 -529
-44 529 533
-534 -44
-534 -532
44 532 534
-535 -533
-535 -534
533 534 535
-536 45
-536 -528
-45 528 536
-537 -45
-537 -535
45 535 537
-538 -536
-538 -537
536 537 538
-539 102
-539 -538
-102 538 539
-540 43
-540 -102
-43 102 540
-541 -539
-541 -540
539 540 541
-542 42
-542 -304
-42 304 542
-543 42
-543 43
-42 -43 543
-544 -43
-544 542
43 -542 544
-545 -543
-545 -544
543 544 545
-546 -43
-546 44
43 -44 546
-547 -44
-547 -545
44 545 547
-548 -546
-548 -547
546 547 548
-549 -42
-549 305
42 -305 549
-550 -42
-550 -549
42 549 550
-551 43
-551 -550
-43 550 551
-552 -44
-552 551
44 -551 552
-553 -533
-553 -552
533 552 553
-554 45
-554 -548
-45 548 554
-555 -45
-555 -553
45 553 555
-556 -554
-556 -555
554 555 556
-557 102
-557 -556
-102 556 557
-558 44
-558 -102
-44 102 558
-559 -557
-559 -558
557 558 559
-560 44
-560 -546
-44 546 560
-561 11
-561 42
-11 -42 561
-562 43
-562 561
-43 -561 562
-563 44
-563 562
-44 -562 563
-564 45
-564 -560
-45 560 564
-565 -45
-565 563
45 -563 565
-566 -564
-566 -565
564 565 566
-567 102
-567 -566
-102 566 567
-568 45
-568 -102
-45 102 568
-569 -567
-569 -568
567 568 569
-570 -47
-570 -141
47 141 570
-571 48
-571 141
-48 -141 571
-572 -48
-572 -570
48 570 572
-573 -571
-573 -572
571 572 573
-574 -12
-574 46
12 -46 574
-575 46
-575 -574
-46 574 575
-576 47
-576 -575
-47 575 576
-577 12
-577 -46
-12 46 577
-578 -47
-578 577
47 -577 578
-579 -196
-579 -578
196 578 579
-580 48
-580 576
-48 -576 580
-581 -48
-581 -579
48 579 581
-582 -580
-582 -581
580 581 582
-583 49
-583 -573
-49 573 583
-584 -49
-584 -582
49 582 584
-585 -583
-585 -584
583 584 585
-586 103
-586 -585
-103 585 586
-587 46
-587 -103
-46 103 587
-588 -586
-588 -587
586 587 588
-589 46
-589 304
-46 -304 589
-590 -47
-590 589
47 -589 590
-591 -196
-591 -590
196 590 591
-592 48
-592 138
-48 -138 592
-593 -48
-593 -591
48 591 593
-594 -592
-594 -593
592 593 594
-595 47
-595 -576
-47 576 595
-596 -46
-596 -305
46 305 596
-597 47
-597 596
-47 -596 597
-598 -138
-598 -597
138 597 598
-599 48
-599 -595
-48 595 599
-600 -48
-600 -598
48 598 600
-601 -599
-601 -600
599 600 601
-602 49
-602 -594
-49 594 602
-603 -49
-603 -601
49 601 603
-604 -602
-604 -603
602 603 604
-605 103
-605 -604
-103 604 605
-606 47
-606 -103
-47 103 606
-607 -605
-607 -606
605 606 607
-608 46
-608 -304
-46 304 608
-609 46
-609 47
-46 -47 609
-610 -47
-610 608
47 -608 610
-611 -609
-611 -610
609 610 611
-612 -47
-612 48
47 -48 612
-613 -48
-613 -611
48 611 613
-614 -612
-614 -613
612 613 614
-615 -46
-615 305
46 -305 615
-616 -46
-616 -615
46 615 616
-617 47
-617 -616
-47 616 617
-618 -48
-618 617
48 -617 618
-619 -599
-619 -618
599 618 619
-620 49
-620 -614
-49 614 620
-621 -49
-621 -619
49 619 621
-622 -620
-622 -621
620 621 622
-623 103
-623 -622
-103 622 623
-624 48
-624 -103
-48 103 624
-625 -623
-625 -624
623 624 625
-626 48
-626 -612
-48 612 626
-627 12
-627 46
-12 -46 627
-628 47
-628 627
-47 -627 628
-629 48
-629 628
-48 -628 629
-630 49
-630 -626
-49 626 630
-631 -49
-631 629
49 -629 631
-632 -630
-632 -631
630 631 632
-633 103
-633 -632
-103 632 633
-634 49
-634 -103
-49 103 634
-635 -633
-635 -634
633 634 635
-636 -51
-636 -149
51 149 636
-637 52
-637 149
-52 -149 637
-638 -52
-638 -636
52 636 638
-639 -637
-639 -638
637 638 639
-640 -13
-640 50
13 -50 640
-641 50
-641 -640
-50 640 641
-642 51
-642 -641
-51 641 642
-643 13
-643 -50
-13 50 643
-644 -51
-644 643
51 -643 644
-645 -203
-645 -644
203 644 645
-646 52
-646 642
-52 -642 646
-647 -52
-647 -645
52 645 647
-648 -646
-648 -647
646 647 648
-649 53
-649 -639
-53 639 649
-650 -53
-650 -648
53 648 650
-651 -649
-651 -650
649 650 651
-652 104
-652 -651
-104 651 652
-653 50
-653 -104
-50 104 653
-654 -652
-654 -653
652 653 654
-655 50
-655 304
-50 -304 655
-656 -51
-656 655
51 -655 656
-657 -203
-657 -656
203 656 657
-658 52
-658 146
-52 -146 658
-659 -52
-659 -657
52 657 659
-660 -658
-660 -659
658 659 660
-661 51
-661 -642
-51 642 661
-662 -50
-662 -305
50 305 662
-663 51
-663 662
-51 -662 663
-664 -146
-664 -663
146 663 664
-665 52
-665 -661
-52 661 665
-666 -52
-666 -664
52 664 666
-667 -665
-667 -666
665 666 667
-668 53
-668 -660
-53 660 668
-669 -53
-669 -667
53 667 669
-670 -668
-670 -669
668 669 670
-671 104
-671 -670
-104 670 671
-672 51
-672 -104
-51 104 672
-673 -671
-673 -672
671 672 673
-674 50
-674 -304
-50 304 674
-675 50
-675 51
-50 -51 675
-676 -51
-676 674
51 -674 676
-677 -675
-677 -676
675 676 677
-678 -51
-678 52
51 -52 678
-679 -52
-679 -677
52 677 679
-680 -678
-680 -679
678 679 680
-681 -50
-681 305
50 -305 681
-682 -50
-682 -681
50 681 682
-683 51
-683 -682
-51 682 683
-684 -52
-684 683
52 -683 684
-685 -665
-685 -684
665 684 685
-686 53
-686 -680
-53 680 686
-687 -53
-687 -685
53 685 687
-688 -686
-688 -687
686 687 688
-689 104
-689 -688
-104 688 689
-690 52
-690 -104
-52 104 690
-691 -689
-691 -690
689 690 691
-692 52
-692 -678
-52 678 692
-693 13
-693 50
-13 -50 693
-694 51
-694 693
-51 -693 694
-695 52
-695 694
-52 -694 695
-696 53
-696 -692
-53 692 696
-697 -53
-697 695
53 -695 697
-698 -696
-698 -697
696 697 698
-699 104
-699 -698
-104 698 699
-700 53
-700 -104
-53 104 700
-701 -699
-701 -700
699 700 701
-702 -55
-702 -157
55 157 702
-703 56
-703 157
-56 -157 703
-704 -56
-704 -702
56 702 704
-705 -703
-705 -704
703 704 705
-706 -14
-706 54
14 -54 706
-707 54
-707 -706
-54 706 707
-708 55
-708 -707
-55 707 708
-709 14
-709 -54
-14 54 709
-710 -55
-710 709
55 -709 710
-711 -210
-711 -710
210 710 711
-712 56
-712 708
-56 -708 712
-713 -56
-713 -711
56 711 713
-714 -712
-714 -713
712 713 714
-715 57
-715 -705
-57 705 715
-716 -57
-716 -714
57 714 716
-717 -715
-717 -716
715 716 717
-718 105
-718 -717
-105 717 718
-719 54
-719 -105
-54 105 719
-720 -718
-720 -719
718 719 720
-721 54
-721 304
-54 -304 721
-722 -55
-722 721
55 -721 722
-723 -210
-723 -722
210 722 723
-724 56
-724 154
-56 -154 724
-725 -56
-725 -723
56 723 725
-726 -724
-726 -725
724 725 726
-727 55
-727 -708
-55 708 727
-728 -54
-728 -305
54 305 728
-729 55
-729 728
-55 -728 729
-730 -154
-730 -729
154 729 730
-731 56
-731 -727
-56 727 731
-732 -56
-732 -730
56 730 732
-733 -731
-733 -732
731 732 733
-734 57
-734 -726
-57 726 734
-735 -57
-735 -733
57 733 735
-736 -734
-736 -735
734 735 736
-737 105
-737 -736
-105 736 737
-738 55
-738 -105
-55 105 738
-739 -737
-739 -738
737 738 739
-740 54
-740 -304
-54 304 740
-741 54
-741 55
-54 -55 741
-742 -55
-742 740
55 -740 742
-743 -741
-743 -742
741 742 743
-744 -55
-744 56
55 -56 744
-745 -56
-745 -743
56 743 745
-746 -744
-746 -745
744 745 746
-747 -54
-747 305
54 -305 747
-748 -54
-748 -747
54 747 748
-749 55
-749 -748
-55 748 749
-750 -56
-750 749
56 -749 750
-751 -731
-751 -750
731 750 751
-752 57
-752 -746
-57 746 752
-753 -57
-753 -751
57 751 753
-754 -752
-754 -753
752 753 754
-755 105
-755 -754
-105 754 755
-756 56
-756 -105
-56 105 756
-757 -755
-757 -756
755 756 757
-758 56
-758 -744
-56 744 758
-759 14
-759 54
-14 -54 759
-760 55
-760 759
-55 -759 760
-761 56
-761 760
-56 -760 761
-762 57
-762 -758
-57 758 762
-763 -57
-763 761
57 -761 763
-764 -762
-764 -763
762 763 764
-765 105
-765 -764
-105 764 765
-766 57
-766 -105
-57 105 766
-767 -765
-767 -766
765 766 767
-768 107
-768 345
-107 -345 768
-769 99
-769 768
-99 -768 769
-770 115
-770 411
-115 -411 770
-771 100
-771 770
-100 -770 771
-772 123
-772 477
-123 -477 772
-773 101
-773 772
-101 -772 773
-774 131
-774 543
-131 -543 774
-775 102
-775 774
-102 -774 775
-776 139
-776 609
-139 -609 776
-777 103
-777 776
-103 -776 777
-778 147
-778 675
-147 -675 778
-779 104
-779 778
-104 -778 779
-780 155
-780 741
-155 -741 780
-781 105
-781 780
-105 -780 781
-782 -769
-782 -771
769 771 782
-783 -773
-783 -775
773 775 783
-784 -777
-784 -779
777 779 784
-785 782
-785 783
-782 -783 785
-786 -781
-786 784
781 -784 786
-787 785
-787 786
-785 -786 787
-788 110
-788 168
-110 -168 788
-789 99
-789 788
-99 -788 789
-790 118
-790 175
-118 -175 790
-791 100
-791 790
-100 -790 791
-792 126
-792 182
-126 -182 792
-793 101
-793 792
-101 -792 793
-794 134
-794 189
-134 -189 794
-795 102
-795 794
-102 -794 795
-796 142
-796 196
-142 -196 796
-797 103
-797 796
-103 -796 797
-798 150
-798 203
-150 -203 798
-799 104
-799 798
-104 -798 799
-800 158
-800 210
-158 -210 800
-801 105
-801 800
-105 -800 801
-802 -789
-802 -791
789 791 802
-803 -793
-803 -795
793 795 803
-804 -797
-804 -799
797 799 804
-805 802
-805 803
-802 -803 805
-806 -801
-806 804
801 -804 806
-807 805
-807 806
-805 -806 807
-808 58
-808 -59
-58 59 808
-809 -305
-809 -808
305 808 809
-810 58
-810 59
-58 -59 810
-811 -58
-811 -59
58 59 811
-812 -810
-812 -811
810 811 812
-813 -58
-813 -807
58 807 813
-814 58
-814 807
-58 -807 814
-815 -813
-815 -814
813 814 815
-816 -58
-816 -787
58 787 816
-817 787
-817 -815
-787 815 817
-818 -816
-818 -817
816 817 818
-819 -807
-819 -812
807 812 819
-820 59
-820 807
-59 -807 820
-821 -819
-821 -820
819 820 821
-822 -787
-822 -809
787 809 822
-823 787
-823 -821
-787 821 823
-824 -822
-824 -823
822 823 824
-825 169
-825 345
-169 -345 825
-826 -23
-826 825
23 -825 826
-827 176
-827 411
-176 -411 827
-828 -24
-828 827
24 -827 828
-829 183
-829 477
-183 -477 829
-830 -25
-830 829
25 -829 830
-831 190
-831 543
-190 -543 831
-832 -26
-832 831
26 -831 832
-833 197
-833 609
-197 -609 833
-834 -27
-834 833
27 -833 834
-835 204
-835 675
-204 -675 835
-836 -28
-836 835
28 -835 836
-837 211
-837 741
-211 -741 837
-838 -29
-838 837
29 -837 838
-839 826
-839 -828
-826 828 839
-840 -826
-840 828
826 -828 840
-841 -839
-841 -840
839 840 841
-842 826
-842 828
-826 -828 842
-843 -830
-843 -841
830 841 843
-844 830
-844 841
-830 -841 844
-845 -843
-845 -844
843 844 845
-846 830
-846 -841
-830 841 846
-847 842
-847 -846
-842 846 847
-848 -842
-848 846
842 -846 848
-849 -847
-849 -848
847 848 849
-850 842
-850 846
-842 -846 850
-851 -832
-851 -845
832 845 851
-852 832
-852 845
-832 -845 852
-853 -851
-853 -852
851 852 853
-854 832
-854 -845
-832 845 854
-855 -850
-855 -853
850 853 855
-856 850
-856 853
-850 -853 856
-857 -855
-857 -856
855 856 857
-858 850
-858 -853
-850 853 858
-859 -854
-859 -858
854 858 859
-860 -849
-860 859
849 -859 860
-861 849
-861 -859
-849 859 861
-862 -860
-862 -861
860 861 862
-863 -849
-863 -859
849 859 863
-864 -834
-864 -857
834 857 864
-865 834
-865 857
-834 -857 865
-866 -864
-866 -865
864 865 866
-867 834
-867 -857
-834 857 867
-868 -862
-868 -867
862 867 868
-869 862
-869 867
-862 -867 869
-870 -868
-870 -869
868 869 870
-871 -862
-871 867
862 -867 871
-872 863
-872 -871
-863 871 872
-873 -863
-873 871
863 -871 873
-874 -872
-874 -873
872 873 874
-875 863
-875 871
-863 -871 875
-876 -836
-876 -866
836 866 876
-877 836
-877 866
-836 -866 877
-878 -876
-878 -877
876 877 878
-879 836
-879 -866
-836 866 879
-880 -875
-880 -878
875 878 880
-881 875
-881 878
-875 -878 881
-882 -880
-882 -881
880 881 882
-883 875
-883 -878
-875 878 883
-884 -879
-884 -883
879 883 884
-885 -870
-885 884
870 -884 885
-886 870
-886 -884
-870 884 886
-887 -885
-887 -886
885 886 887
-888 -870
-888 -884
870 884 888
-889 -874
-889 -888
874 888 889
-890 874
-890 888
-874 -888 890
-891 -889
-891 -890
889 890 891
-892 -874
-892 888
874 -888 892
-893 -838
-893 -882
838 882 893
-894 838
-894 882
-838 -882 894
-895 -893
-895 -894
893 894 895
-896 838
-896 -882
-838 882 896
-897 -892
-897 -895
892 895 897
-898 892
-898 895
-892 -895 898
-899 -897
-899 -898
897 898 899
-900 892
-900 -895
-892 895 900
-901 -896
-901 -900
896 900 901
-902 -887
-902 901
887 -901 902
-903 887
-903 -901
-887 901 903
-904 -902
-904 -903
902 903 904
-905 -887
-905 -901
887 901 905
-906 -891
-906 -905
891 905 906
-907 891
-907 905
-891 -905 907
-908 -906
-908 -907
906 907 908
-909 -891
-909 905
891 -905 909
-910 -899
-910 -904
899 904 910
-911 908
-911 910
-908 -910 911
-912 908
-912 -911
-908 911 912
-913 -304
-913 -305
304 305 913
-914 -787
-914 810
787 -810 914
-915 -807
-915 811
807 -811 915
-916 912
-916 -914
-912 914 916
-917 -913
-917 -915
913 915 917
-918 916
-918 917
-916 -917 918
-918
